5 5
4 4 4 19 3 11 2 13 1 8 5 1 6 5 15 2 20 3 18 4 3 3 3 18 1 17 2 2 2 3 3 4 3
5 4 5 8 2 15 4 3 1 18 3 4 6 3 3 2 4 2 5 7 4 3 4 4 14 5 7 2 16 3 10 5 2 11 3 13 5 20 4 12 1 12
4 2 3 3 4 13 5 3 5 1 17 5 20 2 2 4 11 3 5 8 4 12 3 6 2 3 15 5 12
6 4 3 11 5 12 2 8 4 14 2 5 19 3 13 1 5 16 5 1 4 3 8 2 6 5 15 4 16 5 2 17 5 16 3 2 1 6 4 13 4 2 2 1 9 5 12 4 4
8 4 3 8 4 19 2 18 5 20 5 4 3 2 15 5 6 1 5 3 14 5 4 15 2 14 5 4 1 20 3 15 4 5 7 4 11 2 15 3 14 3 1 4 2 15 3 5 2 2 12 3 18 4 1 8 2 3 3 8 5 2 5 4 15 5 20 1 13 2 7 3 14